559,166
685,435
390,617
1137,258
1093,705
822,600
803,166
501,406
822,600
734,433
681,796
1108,623
742,791
597,490
672,465
469,194
616,-8
630,731
532,112
444,443
494,311
745,207
681,286
880,470
363,724
641,486
